CSW03
Position Depot: Random
Horizon for Depot: Small
Position of customers: Cluster
Distribution of the demand: Small
Width of time windows: Wide
Distribution of the service: Small

VEHICLE 
NUMBER 	 CAPACITY 
 5 	 	 77 
 
CUSTOMER
CUST NO. 	 XCOORD.  	 YCOORD. 	 DEMAND 	 READY TIME 	 DUE DATE 	 SERVICE TIME 
 0 	 	 244 	 	 502 	 	 0 	 	 0 	 	 2084 	 	 0 
  1 	 	 328 	 	 86 	 	 5 	 	 1342 	 	 1824 	 	 98 
  2 	 	 845 	 	 456 	 	 10 	 	 368 	 	 663 	 	 60 
  3 	 	 115 	 	 509 	 	 7 	 	 -83 	 	 403 	 	 86 
  4 	 	 791 	 	 188 	 	 10 	 	 846 	 	 1216 	 	 82 
  5 	 	 677 	 	 421 	 	 10 	 	 1376 	 	 1629 	 	 57 
  6 	 	 617 	 	 485 	 	 8 	 	 675 	 	 985 	 	 99 
  7 	 	 780 	 	 452 	 	 5 	 	 1285 	 	 1734 	 	 52 
  8 	 	 742 	 	 572 	 	 7 	 	 674 	 	 1080 	 	 67 
  9 	 	 51 	 	 448 	 	 5 	 	 1750 	 	 2084 	 	 95 
  10 	 	 598 	 	 497 	 	 10 	 	 1604 	 	 1974 	 	 100 
  11 	 	 209 	 	 716 	 	 9 	 	 1142 	 	 1427 	 	 73 
  12 	 	 653 	 	 434 	 	 6 	 	 1177 	 	 1664 	 	 75 
  13 	 	 763 	 	 415 	 	 6 	 	 196 	 	 578 	 	 51 
  14 	 	 569 	 	 532 	 	 8 	 	 948 	 	 1292 	 	 62 
  15 	 	 664 	 	 492 	 	 9 	 	 95 	 	 462 	 	 57 
  16 	 	 659 	 	 441 	 	 10 	 	 282 	 	 520 	 	 83 
  17 	 	 604 	 	 468 	 	 7 	 	 -91 	 	 397 	 	 81 
  18 	 	 789 	 	 404 	 	 5 	 	 1254 	 	 1666 	 	 88 
  19 	 	 604 	 	 482 	 	 7 	 	 1031 	 	 1449 	 	 50 
  20 	 	 191 	 	 510 	 	 8 	 	 -43 	 	 427 	 	 62 
  21 	 	 618 	 	 604 	 	 9 	 	 837 	 	 1329 	 	 89 
  22 	 	 356 	 	 107 	 	 10 	 	 1649 	 	 2084 	 	 75 
  23 	 	 609 	 	 474 	 	 10 	 	 168 	 	 402 	 	 76 
  24 	 	 607 	 	 468 	 	 10 	 	 1626 	 	 2008 	 	 77 
  25 	 	 369 	 	 34 	 	 9 	 	 84 	 	 532 	 	 97 
  26 	 	 627 	 	 466 	 	 9 	 	 162 	 	 533 	 	 89 
  27 	 	 39 	 	 429 	 	 9 	 	 1444 	 	 1762 	 	 84 
  28 	 	 635 	 	 352 	 	 6 	 	 1692 	 	 2084 	 	 87 
  29 	 	 636 	 	 494 	 	 5 	 	 1493 	 	 1732 	 	 61 
  30 	 	 559 	 	 462 	 	 6 	 	 1350 	 	 1673 	 	 63 
  31 	 	 844 	 	 257 	 	 8 	 	 403 	 	 712 	 	 57 
  32 	 	 802 	 	 534 	 	 5 	 	 910 	 	 1376 	 	 90 
  33 	 	 857 	 	 674 	 	 5 	 	 316 	 	 700 	 	 69 
  34 	 	 695 	 	 456 	 	 7 	 	 29 	 	 498 	 	 98 
  35 	 	 855 	 	 405 	 	 7 	 	 960 	 	 1411 	 	 62 
  36 	 	 819 	 	 408 	 	 5 	 	 929 	 	 1270 	 	 55 
  37 	 	 507 	 	 449 	 	 8 	 	 856 	 	 1070 	 	 78 
  38 	 	 787 	 	 381 	 	 9 	 	 249 	 	 713 	 	 73 
  39 	 	 163 	 	 471 	 	 10 	 	 179 	 	 425 	 	 94 
  40 	 	 736 	 	 461 	 	 8 	 	 854 	 	 1076 	 	 75 
  41 	 	 84 	 	 548 	 	 10 	 	 261 	 	 713 	 	 50 
  42 	 	 626 	 	 425 	 	 5 	 	 1350 	 	 1723 	 	 65 
  43 	 	 306 	 	 130 	 	 6 	 	 185 	 	 427 	 	 82 
  44 	 	 741 	 	 383 	 	 7 	 	 1148 	 	 1600 	 	 58 
  45 	 	 890 	 	 494 	 	 5 	 	 1251 	 	 1670 	 	 52 
  46 	 	 824 	 	 208 	 	 7 	 	 303 	 	 756 	 	 77 
  47 	 	 335 	 	 91 	 	 8 	 	 742 	 	 1227 	 	 89 
  48 	 	 849 	 	 465 	 	 10 	 	 1511 	 	 1874 	 	 78 
  49 	 	 99 	 	 545 	 	 8 	 	 1850 	 	 2084 	 	 74 
  50 	 	 355 	 	 211 	 	 10 	 	 1387 	 	 1878 	 	 89 
 